100 8
834 57
321 822
929 620
225 129
784 730
609 331
141 330
666 946
117 535
248 536
698 208
851 677
793 885
889 681
710 799
147 703
86 545
739 563
824 625
158 871
860 40
747 667
640 828
646 757
274 838
275 177
808 843
256 655
201 487
683 928
290 571
272 815
162 82
281 392
150 692
482 139
828 724
806 162
657 362
103 456
503 935
884 703
359 524
408 499
801 704
207 362
743 590
459 872
185 91
180 703
373 173
276 596
610 936
101 609
861 576
893 630
658 819
259 517
420 538
690 254
395 91
208 540
505 610
790 249
838 592
106 475
393 568
864 726
827 311
144 544
647 293
178 708
818 264
228 145
430 656
638 337
340 870
873 517
860 215
566 335
247 519
548 588
724 398
91 375
715 360
767 140
522 544
207 504
943 51
263 485
927 161
852 348
892 572
331 805
307 71
757 725
867 622
703 444
145 514
878 47
